SDVRP instances/p03/p03_3070_tsplib0_splitx10_0.vrp
NAME:.\SDVRP_splitx10_
BEST_KNOWN: 0
COMMENT: 0
DIMENSION: 572
CAPACITY: 2000
EDGE_WEIGHT_FORMAT: FUNCTION
EDGE_WEIGHT_TYPE: EXACT_2D
NODE_COORD_SECTION
1 0.00000 0.00000
2 6 14
3 6 14
4 6 14
5 6 14
6 6 14
7 6 14
8 6 14
9 0 -18
10 0 -18
11 0 -18
12 0 -18
13 20 10
14 20 10
15 20 10
16 20 10
17 20 10
18 20 10
19 20 10
20 20 -15
21 20 -15
22 20 -15
23 20 -15
24 20 -15
25 -20 -5
26 -20 -5
27 -20 -5
28 -20 -5
29 -20 -5
30 -10 -5
31 -10 -5
32 -10 -5
33 -10 -5
34 -10 -5
35 -10 -5
36 -10 -5
37 -15 15
38 -15 15
39 -15 15
40 -15 15
41 -15 15
42 -15 15
43 -15 15
44 -15 15
45 -25 8
46 -25 8
47 -25 8
48 -25 8
49 -25 8
50 -25 8
51 20 25
52 20 25
53 20 25
54 20 25
55 20 25
56 20 25
57 -5 25
58 -5 25
59 -5 25
60 -15 30
61 -15 30
62 -15 30
63 -15 30
64 -15 30
65 15 0
66 15 0
67 15 0
68 15 0
69 -5 -10
70 -5 -10
71 -5 -10
72 -5 -10
73 -5 -10
74 -5 -10
75 -5 -10
76 -20 -25
77 -20 -25
78 -20 -25
79 -20 -25
80 -5 -30
81 -5 -30
82 -5 -30
83 -5 -30
84 -5 -30
85 -5 -30
86 -5 -30
87 -25 -15
88 -25 -15
89 -25 -15
90 -25 -15
91 -30 -5
92 -30 -5
93 -30 -5
94 -30 -5
95 -30 -5
96 -15 5
97 -15 5
98 -15 5
99 -20 25
100 -20 25
101 -20 25
102 -20 25
103 -20 25
104 -20 25
105 -20 25
106 10 30
107 10 30
108 10 30
109 10 30
110 10 30
111 10 -15
112 10 -15
113 10 -15
114 10 -15
115 10 -15
116 10 -15
117 10 -25
118 10 -25
119 10 -25
120 10 -25
121 20 -30
122 20 -30
123 20 -30
124 20 -30
125 20 -30
126 30 0
127 30 0
128 30 0
129 30 0
130 30 0
131 30 0
132 30 -15
133 30 -15
134 30 -15
135 30 -15
136 30 -15
137 10 -5
138 10 -5
139 10 -5
140 10 -5
141 10 -5
142 10 -5
143 10 -5
144 10 -5
145 0 5
146 0 5
147 0 5
148 6 2
149 6 2
150 6 2
151 6 2
152 29 7
153 29 7
154 29 7
155 29 7
156 5 25
157 5 25
158 5 25
159 5 25
160 5 25
161 5 25
162 -4 17
163 -4 17
164 -4 17
165 -4 17
166 -4 17
167 -4 17
168 -4 17
169 0 34
170 0 34
171 0 34
172 0 34
173 0 34
174 18 17
175 18 17
176 18 17
177 18 17
178 18 17
179 18 17
180 30 20
181 30 20
182 30 20
183 30 20
184 30 20
185 30 20
186 30 20
187 28 30
188 28 30
189 28 30
190 28 30
191 28 30
192 28 30
193 28 30
194 -33 25
195 -33 25
196 -33 25
197 -33 25
198 -33 25
199 -33 25
200 -33 25
201 -15 -15
202 -15 -15
203 -15 -15
204 -15 -15
205 -30 -30
206 -30 -30
207 -30 -30
208 -30 -30
209 -30 -30
210 -30 -30
211 -30 -30
212 25 -23
213 25 -23
214 25 -23
215 25 -23
216 25 -23
217 25 -23
218 25 -23
219 5 -10
220 5 -10
221 5 -10
222 5 -10
223 5 -10
224 5 -10
225 7 -28
226 7 -28
227 7 -28
228 7 -28
229 7 -28
230 7 -28
231 -11 -23
232 -11 -23
233 -11 -23
234 -11 -23
235 -11 -23
236 -12 -32
237 -12 -32
238 -12 -32
239 -12 -32
240 -24 -21
241 -24 -21
242 -24 -21
243 -24 -21
244 -24 -21
245 -24 -21
246 -29 3
247 -29 3
248 -29 3
249 -29 3
250 -33 13
251 -33 13
252 -33 13
253 -27 21
254 -27 21
255 -27 21
256 -27 21
257 -27 21
258 -27 21
259 -27 21
260 -27 21
261 -22 17
262 -22 17
263 -22 17
264 -22 17
265 -22 17
266 -29 33
267 -29 33
268 -29 33
269 -29 33
270 -29 33
271 -29 33
272 -29 33
273 12 12
274 12 12
275 12 12
276 12 12
277 12 12
278 12 12
279 12 12
280 12 12
281 14 23
282 14 23
283 14 23
284 14 23
285 14 23
286 14 23
287 -8 8
288 -8 8
289 -8 8
290 -8 8
291 -8 8
292 2 -4
293 2 -4
294 2 -4
295 2 -4
296 2 -4
297 22 -6
298 22 -6
299 22 -6
300 22 -6
301 22 -6
302 22 -6
303 28 -12
304 28 -12
305 28 -12
306 28 -12
307 28 -12
308 28 -12
309 28 -12
310 28 -12
311 28 -12
312 18 -23
313 18 -23
314 18 -23
315 18 -23
316 18 -23
317 18 -23
318 18 -23
319 18 -23
320 -3 -23
321 -3 -23
322 -3 -23
323 -3 -23
324 1 -9
325 1 -9
326 1 -9
327 1 -9
328 1 -9
329 1 -9
330 1 -9
331 -14 -11
332 -14 -11
333 -14 -11
334 -14 -11
335 -18 -1
336 -18 -1
337 -18 -1
338 -18 -1
339 -18 -1
340 -18 -1
341 -23 -11
342 -23 -11
343 -23 -11
344 -23 -11
345 -11 23
346 -11 23
347 -11 23
348 -8 34
349 -8 34
350 -8 34
351 -8 34
352 -8 34
353 -20 42
354 -20 42
355 -20 42
356 -20 42
357 27 42
358 27 42
359 27 42
360 27 42
361 27 42
362 27 42
363 14 38
364 14 38
365 14 38
366 14 38
367 14 38
368 14 38
369 14 38
370 32 -30
371 32 -30
372 32 -30
373 32 -30
374 32 -30
375 32 -30
376 32 -30
377 21 4
378 21 4
379 21 4
380 21 4
381 21 4
382 21 4
383 2 12
384 2 12
385 2 12
386 2 12
387 2 12
388 2 12
389 2 12
390 2 12
391 2 21
392 2 21
393 2 21
394 2 21
395 2 21
396 2 21
397 2 21
398 2 21
399 22 33
400 22 33
401 22 33
402 22 33
403 22 33
404 22 33
405 22 33
406 12 -19
407 12 -19
408 12 -19
409 12 -19
410 12 -19
411 9 -18
412 9 -18
413 9 -18
414 9 -18
415 9 -18
416 9 -18
417 9 -18
418 11 -22
419 11 -22
420 11 -22
421 11 -22
422 11 -22
423 11 -22
424 11 -22
425 11 -22
426 11 -22
427 14 -24
428 14 -24
429 14 -24
430 14 -24
431 14 7
432 14 7
433 14 7
434 14 7
435 14 7
436 18 8
437 18 8
438 18 8
439 18 8
440 18 8
441 18 8
442 26 17
443 26 17
444 26 17
445 26 17
446 26 17
447 26 17
448 26 17
449 26 17
450 22 13
451 22 13
452 22 13
453 22 13
454 22 13
455 22 13
456 21 2
457 21 2
458 21 2
459 21 2
460 21 2
461 20 19
462 20 19
463 20 19
464 20 19
465 20 19
466 -20 12
467 -20 12
468 -20 12
469 -21 2
470 -21 2
471 -21 2
472 -21 2
473 -21 2
474 -21 2
475 -24 -4
476 -24 -4
477 -24 -4
478 -24 -4
479 -24 -4
480 -19 -13
481 -19 -13
482 -19 -13
483 -19 -13
484 -19 -13
485 -19 -13
486 -19 -13
487 -19 -13
488 -31 -17
489 -31 -17
490 -31 -17
491 -31 -17
492 -7 -17
493 -7 -17
494 -7 -17
495 -7 -17
496 -7 -17
497 -7 -17
498 -7 -17
499 -7 -17
500 -9 17
501 -9 17
502 -9 17
503 -9 17
504 -9 17
505 -9 0
506 -9 0
507 -9 0
508 -9 0
509 -9 0
510 -9 0
511 -9 0
512 -4 32
513 -4 32
514 -4 32
515 -4 32
516 -4 32
517 -4 32
518 -4 32
519 -20 -16
520 -20 -16
521 -20 -16
522 -20 -16
523 -20 -16
524 -20 -16
525 -13 -13
526 -13 -13
527 -13 -13
528 -13 -13
529 -13 -13
530 -13 -13
531 -17 -11
532 -17 -11
533 -17 -11
534 -17 -11
535 -17 -11
536 -9 -8
537 -9 -8
538 -9 -8
539 -9 -8
540 -9 -8
541 -9 -8
542 -9 -8
543 -10 -11
544 -10 -11
545 -10 -11
546 -10 -11
547 -10 -11
548 -10 -11
549 -13 -8
550 -13 -8
551 -13 -8
552 -13 -8
553 -13 -8
554 -10 -14
555 -10 -14
556 -10 -14
557 -10 -14
558 -16 -14
559 -16 -14
560 -16 -14
561 -16 -14
562 -16 -14
563 -15 -9
564 -15 -9
565 -15 -9
566 -15 -9
567 -17 -17
568 -17 -17
569 -17 -17
570 -17 -17
571 -17 -17
572 -17 -17
DEMAND_SECTION
1 0
2 400
3 400
4 400
5 20
6 20
7 20
8 20
9 400
10 400
11 100
12 10
13 400
14 200
15 100
16 20
17 20
18 20
19 20
20 400
21 400
22 200
23 20
24 20
25 400
26 400
27 400
28 100
29 20
30 400
31 400
32 400
33 20
34 20
35 20
36 20
37 400
38 400
39 100
40 20
41 20
42 20
43 20
44 10
45 400
46 200
47 20
48 20
49 20
50 20
51 400
52 200
53 100
54 20
55 20
56 20
57 400
58 200
59 20
60 400
61 400
62 400
63 20
64 20
65 400
66 400
67 100
68 10
69 400
70 400
71 100
72 20
73 20
74 20
75 10
76 400
77 400
78 200
79 10
80 400
81 400
82 200
83 100
84 20
85 20
86 20
87 400
88 400
89 20
90 10
91 400
92 200
93 20
94 20
95 20
96 400
97 400
98 200
99 400
100 400
101 400
102 20
103 20
104 20
105 20
106 400
107 400
108 200
109 20
110 10
111 400
112 200
113 20
114 20
115 20
116 20
117 400
118 400
119 200
120 100
121 400
122 400
123 200
124 100
125 20
126 400
127 400
128 200
129 20
130 20
131 20
132 400
133 400
134 400
135 20
136 10
137 400
138 400
139 200
140 100
141 20
142 20
143 20
144 20
145 400
146 200
147 20
148 400
149 400
150 400
151 20
152 400
153 200
154 100
155 20
156 400
157 200
158 20
159 20
160 20
161 20
162 400
163 400
164 400
165 20
166 20
167 20
168 20
169 400
170 400
171 400
172 20
173 20
174 400
175 400
176 400
177 20
178 20
179 20
180 400
181 200
182 100
183 20
184 20
185 20
186 10
187 400
188 400
189 400
190 20
191 20
192 20
193 10
194 400
195 400
196 100
197 20
198 20
199 20
200 20
201 400
202 400
203 400
204 20
205 400
206 400
207 100
208 20
209 20
210 20
211 20
212 400
213 400
214 100
215 20
216 20
217 20
218 20
219 400
220 400
221 400
222 20
223 20
224 20
225 400
226 200
227 100
228 20
229 20
230 10
231 400
232 200
233 20
234 20
235 10
236 400
237 400
238 200
239 100
240 400
241 400
242 200
243 100
244 20
245 10
246 400
247 400
248 400
249 100
250 400
251 400
252 20
253 400
254 400
255 100
256 20
257 20
258 20
259 20
260 10
261 400
262 400
263 100
264 20
265 20
266 400
267 400
268 400
269 20
270 20
271 20
272 10
273 400
274 400
275 200
276 20
277 20
278 20
279 20
280 10
281 400
282 400
283 200
284 100
285 20
286 10
287 400
288 400
289 200
290 100
291 20
292 400
293 200
294 20
295 20
296 20
297 400
298 400
299 400
300 100
301 20
302 10
303 400
304 400
305 200
306 100
307 20
308 20
309 20
310 20
311 10
312 400
313 400
314 200
315 100
316 20
317 20
318 20
319 20
320 400
321 400
322 20
323 20
324 400
325 400
326 200
327 100
328 20
329 20
330 20
331 400
332 400
333 100
334 20
335 400
336 400
337 20
338 20
339 20
340 10
341 400
342 400
343 400
344 100
345 400
346 400
347 10
348 400
349 400
350 20
351 20
352 10
353 400
354 400
355 20
356 10
357 400
358 400
359 20
360 20
361 20
362 20
363 400
364 400
365 100
366 20
367 20
368 20
369 20
370 400
371 400
372 400
373 20
374 20
375 20
376 20
377 400
378 200
379 20
380 20
381 20
382 10
383 400
384 400
385 400
386 100
387 20
388 20
389 20
390 20
391 400
392 400
393 400
394 20
395 20
396 20
397 20
398 10
399 400
400 400
401 400
402 100
403 20
404 20
405 10
406 400
407 400
408 400
409 100
410 10
411 400
412 400
413 400
414 20
415 20
416 20
417 10
418 400
419 400
420 400
421 100
422 20
423 20
424 20
425 20
426 10
427 400
428 200
429 20
430 20
431 400
432 400
433 20
434 20
435 20
436 400
437 400
438 200
439 20
440 20
441 20
442 400
443 400
444 200
445 100
446 20
447 20
448 20
449 10
450 400
451 400
452 200
453 20
454 20
455 10
456 400
457 400
458 400
459 20
460 20
461 400
462 400
463 200
464 100
465 20
466 400
467 400
468 20
469 400
470 400
471 200
472 100
473 20
474 20
475 400
476 400
477 200
478 100
479 10
480 400
481 400
482 400
483 100
484 20
485 20
486 20
487 20
488 400
489 400
490 400
491 20
492 400
493 400
494 400
495 100
496 20
497 20
498 20
499 20
500 400
501 400
502 400
503 20
504 20
505 400
506 400
507 400
508 20
509 20
510 20
511 20
512 400
513 200
514 20
515 20
516 20
517 20
518 10
519 400
520 400
521 400
522 20
523 20
524 10
525 400
526 400
527 200
528 20
529 20
530 20
531 400
532 200
533 100
534 20
535 20
536 400
537 400
538 400
539 100
540 20
541 20
542 10
543 400
544 400
545 200
546 100
547 20
548 20
549 400
550 400
551 400
552 20
553 10
554 400
555 400
556 400
557 10
558 400
559 400
560 100
561 20
562 20
563 400
564 400
565 400
566 10
567 400
568 200
569 20
570 20
571 20
572 20
DEPOT_SECTION
1
-1
EOF