SDVRP instances/p03/p03_3070_tsplib0_splitx10_0.sol
571 -4 1 5 6 396 394 393 397 390 392 391 395 -7 3 2 274 273 279 278 277 276 275 272 -11 10 8 9 325 328 327 324 323 -12 16 17 15 13 18 14 452 454 453 451 449 450 -23 20 19 22 21 405 407 409 -25 24 28 476 475 477 474 478 -26 27 246 245 248 247 -29 30 31 535 537 -33 34 32 35 342 340 343 341 534 530 531 -42 40 266 270 193 199 195 194 196 197 198 258 257 255 254 252 -43 36 41 39 38 37 287 290 288 286 -46 49 47 45 44 48 251 249 250 259 256 253 -51 55 53 50 398 400 403 404 399 402 401 -52 54 359 361 358 360 357 356 364 366 365 367 362 363 368 -64 65 297 298 296 -66 67 126 127 128 129 130 125 151 154 152 153 -69 554 553 555 543 -71 73 72 74 70 68 491 492 493 497 494 496 495 498 -81 85 80 83 82 79 84 319 320 322 321 -96 97 95 504 506 510 508 509 507 -100 99 98 344 345 -101 102 104 103 269 268 271 265 267 353 352 355 354 58 57 166 -105 107 106 109 108 285 281 280 283 -113 115 112 111 114 110 410 412 413 414 411 415 -118 117 119 116 229 226 227 224 228 225 329 326 -122 120 123 124 121 216 211 212 215 214 -135 133 132 131 134 304 303 309 300 301 299 -141 137 138 140 142 136 139 143 -146 144 145 384 382 383 385 387 389 388 386 -147 148 150 149 -158 155 157 156 160 159 168 171 169 172 170 -163 162 161 500 499 -164 165 167 56 347 348 350 349 351 514 515 516 517 511 512 513 -174 188 189 187 191 186 190 192 284 282 -177 175 173 178 176 461 462 464 460 463 -182 179 181 180 185 183 184 443 445 444 446 442 447 441 448 -203 200 201 202 526 524 529 -207 205 204 206 209 208 210 77 78 76 75 556 -213 217 373 372 375 369 370 374 371 308 307 306 302 305 310 -222 223 221 218 220 219 295 293 292 294 291 -230 232 234 233 231 236 237 235 238 -239 242 244 243 241 240 88 86 87 89 483 486 -260 264 263 262 261 465 467 466 -289 60 61 59 62 63 346 501 502 503 -317 315 313 312 311 318 314 316 427 426 429 428 -335 339 334 337 468 470 469 472 471 473 -338 336 93 90 91 92 94 488 490 487 489 -379 377 380 378 376 381 457 455 459 458 456 -408 406 420 417 419 424 421 422 425 418 423 416 -434 431 433 432 430 437 438 439 440 435 436 -481 485 480 479 482 484 532 533 565 551 550 552 -505 562 564 563 548 -523 521 522 518 519 520 571 570 567 569 568 566 -538 560 559 561 557 558 525 528 527 547 542 545 -539 541 540 536 544 546 332 331 330 333 549 0 





OBJ=
3074.770
BEST_KNOWN=
0.000